1 -1 -2 0
1 -1 3 0
1 1 4 0
1 1 -5 0
1 -2 -6 0
1 -2 -3 0
1 2 1 0
1 -2 4 0
1 7 -8 0
1 -7 -9 0
1 -7 -10 0
1 7 -3 0
1 -7 -11 0
1 7 12 0
1 -7 -13 0
1 -7 14 0
1 -7 -4 0
1 7 5 0
1 -10 -8 0
1 10 9 0
1 -10 -15 0
1 10 3 0
1 10 -11 0
1 -10 -12 0
1 -10 13 0
1 -10 -4 0
1 10 5 0
1 -11 16 0
1 11 17 0
1 -11 18 0
1 -11 2 0
1 -11 19 0
1 11 -20 0
1 11 21 0
1 11 -22 0
1 -5 23 0
1 -5 16 0
1 5 17 0
1 5 -18 0
1 -5 -10 0
1 -5 -2 0
1 -5 11 0
1 -5 20 0
1 5 21 0
1 -5 22 0
1 -5 7 0
1 -3 -16 0
1 -3 -24 0
1 3 25 0
1 -3 -10 0
1 3 2 0
1 -3 26 0
1 -3 -7 0
1 3 1 0
1 -4 16 0
1 4 24 0
1 -4 25 0
1 -4 -10 0
1 4 -2 0
1 -4 -3 0
1 -4 20 0
1 4 26 0
1 4 27 0
1 -4 7 0
1 -4 -1 0
1 4 28 0
1 22 8 0
1 -22 -9 0
1 22 18 0
1 22 -11 0
1 22 -12 0
1 22 -27 0
1 18 -8 0
1 18 -9 0
1 18 -25 0
1 18 11 0
1 18 12 0
1 18 -13 0
1 18 -22 0
1 18 -5 0
1 -21 -8 0
1 -21 -9 0
1 -21 17 0
1 -21 -29 0
1 21 30 0
1 -21 -11 0
1 -21 -12 0
1 21 -13 0
1 -21 26 0
1 -21 -31 0
1 -21 -5 0
1 -17 9 0
1 17 -29 0
1 -17 24 0
1 17 30 0
1 -17 11 0
1 17 13 0
1 -17 21 0
1 -17 32 0
1 17 31 0
1 -17 5 0
1 13 33 0
1 13 34 0
1 -13 -9 0
1 13 17 0
1 -13 18 0
1 -13 10 0
1 13 35 0
1 -13 -36 0
1 -13 -37 0
1 -13 -21 0
1 -13 -22 0
1 -13 7 0
1 13 -38 0
1 9 33 0
1 9 -34 0
1 -9 -39 0
1 9 17 0
1 9 18 0
1 -9 -10 0
1 -9 -40 0
1 9 35 0
1 -9 -13 0
1 -9 -21 0
1 -9 -22 0
1 -9 -7 0
1 9 -38 0
1 -12 16 0
1 12 -17 0
1 -12 -10 0
1 12 40 0
1 12 -41 0
1 12 -42 0
1 12 -21 0
1 -12 22 0
1 -12 -7 0
1 -8 43 0
1 -8 -16 0
1 -8 -17 0
1 8 18 0
1 8 -10 0
1 -8 40 0
1 -8 -12 0
1 -8 -20 0
1 -8 -21 0
1 -8 -22 0
1 8 7 0
1 8 38 0
1 36 34 0
1 36 9 0
1 -36 -29 0
1 36 30 0
1 -36 -13 0
1 -36 -20 0
1 36 -32 0
1 -36 -31 0
1 34 -9 0
1 34 -16 0
1 34 -30 0
1 -34 -36 0
1 34 13 0
1 34 -32 0
1 -35 -33 0
1 35 -9 0
1 35 30 0
1 35 -41 0
1 35 -13 0
1 35 -32 0
1 35 -31 0
1 -33 43 0
1 33 -9 0
1 33 -29 0
1 33 -35 0
1 33 13 0
1 -33 32 0
1 -33 -31 0
1 31 33 0
1 -31 34 0
1 -31 17 0
1 -31 44 0
1 -31 35 0
1 -31 -36 0
1 31 -21 0
1 31 -45 0
1 30 33 0
1 -30 34 0
1 -30 17 0
1 -30 46 0
1 -30 44 0
1 30 35 0
1 30 36 0
1 -30 21 0
1 -30 -45 0
1 -32 33 0
1 32 -34 0
1 32 17 0
1 -32 -29 0
1 -32 -44 0
1 -32 -47 0
1 -32 -40 0
1 -32 35 0
1 32 36 0
1 32 -21 0
1 32 48 0
1 32 45 0
1 32 -38 0
1 -29 -34 0
1 29 -17 0
1 -29 49 0
1 29 44 0
1 29 47 0
1 29 -40 0
1 -29 -35 0
1 29 -36 0
1 29 -21 0
1 -29 -32 0
1 -29 45 0
1 -29 50 0
1 -29 38 0
1 51 -6 0
1 -51 -52 0
1 6 53 0
1 -6 54 0
1 -6 -2 0
1 6 -52 0
1 6 55 0
1 6 -51 0
1 14 -53 0
1 14 -54 0
1 14 56 0
1 -14 57 0
1 14 -15 0
1 -14 -52 0
1 14 -55 0
1 -14 -58 0
1 14 -59 0
1 14 -7 0
1 15 -53 0
1 -15 54 0
1 -15 -56 0
1 15 10 0
1 15 -52 0
1 -15 55 0
1 15 -58 0
1 15 59 0
1 -15 -14 0
1 -54 24 0
1 -54 -60 0
1 54 -25 0
1 -54 -15 0
1 -54 -6 0
1 -54 -55 0
1 -54 -26 0
1 -54 27 0
1 -54 -14 0
1 54 -51 0
1 -55 -54 0
1 55 24 0
1 55 -25 0
1 55 15 0
1 55 -6 0
1 55 -61 0
1 -55 -26 0
1 -55 -14 0
1 53 -62 0
1 53 6 0
1 53 -52 0
1 -53 -14 0
1 -53 -51 0
1 52 53 0
1 52 -15 0
1 -52 6 0
1 -52 63 0
1 -52 -14 0
1 52 51 0
1 27 -54 0
1 -27 -56 0
1 27 25 0
1 -27 -57 0
1 27 58 0
1 -27 59 0
1 -27 -22 0
1 -27 -4 0
1 -25 54 0
1 -25 -56 0
1 25 18 0
1 -25 -57 0
1 25 3 0
1 -25 -55 0
1 25 -4 0
1 -26 54 0
1 26 24 0
1 26 -56 0
1 -26 57 0
1 26 -64 0
1 -26 65 0
1 26 55 0
1 -26 -21 0
1 -26 66 0
1 -26 67 0
1 -24 -17 0
1 -24 -56 0
1 24 -57 0
1 -24 65 0
1 -24 3 0
1 -24 -55 0
1 24 -26 0
1 24 66 0
1 -24 67 0
1 24 4 0
1 -57 68 0
1 -57 59 0
1 57 -24 0
1 57 -25 0
1 57 69 0
1 57 15 0
1 57 70 0
1 57 41 0
1 57 -20 0
1 -57 26 0
1 -57 27 0
1 -57 14 0
1 -59 -68 0
1 -59 -43 0
1 -59 -16 0
1 59 24 0
1 -59 25 0
1 59 57 0
1 -59 15 0
1 59 -70 0
1 59 41 0
1 -59 20 0
1 -59 26 0
1 -59 -71 0
1 59 27 0
1 -59 -14 0
1 -56 68 0
1 56 -24 0
1 56 72 0
1 -56 -25 0
1 -56 15 0
1 -56 70 0
1 56 58 0
1 -56 -26 0
1 56 14 0
1 -58 -24 0
1 58 56 0
1 58 -25 0
1 58 -15 0
1 58 26 0
1 58 -73 0
1 58 27 0
1 -58 -14 0
1 -20 -16 0
1 20 64 0
1 -20 -65 0
1 20 3 0
1 -20 -11 0
1 20 12 0
1 20 36 0
1 -20 59 0
1 20 -66 0
1 20 67 0
1 20 4 0
1 -20 5 0
1 16 -8 0
1 -16 -57 0
1 -16 -64 0
1 16 -65 0
1 -16 -3 0
1 -16 11 0
1 16 12 0
1 16 20 0
1 -16 -59 0
1 16 66 0
1 16 -67 0
1 16 -4 0
1 -16 -5 0
1 41 -23 0
1 -41 8 0
1 41 43 0
1 -41 57 0
1 41 65 0
1 41 -19 0
1 41 12 0
1 -41 -35 0
1 41 59 0
1 -41 66 0
1 -41 67 0
1 41 28 0
1 43 23 0
1 43 33 0
1 43 8 0
1 43 -57 0
1 -43 -65 0
1 43 74 0
1 43 -19 0
1 43 12 0
1 -43 41 0
1 -43 -59 0
1 -43 67 0
1 -43 -28 0
1 65 -43 0
1 65 -16 0
1 65 24 0
1 -65 75 0
1 -65 47 0
1 65 -76 0
1 65 40 0
1 -65 -41 0
1 65 20 0
1 65 26 0
1 65 -67 0
1 -65 -77 0
1 65 -50 0
1 -65 38 0
1 67 -43 0
1 67 16 0
1 -67 -24 0
1 -67 -65 0
1 67 47 0
1 -67 -40 0
1 -67 -78 0
1 67 41 0
1 -67 20 0
1 -67 26 0
1 67 -77 0
1 -67 50 0
1 -67 38 0
1 -64 -68 0
1 -64 -43 0
1 64 16 0
1 64 -24 0
1 -64 79 0
1 -64 75 0
1 64 -80 0
1 -64 70 0
1 -64 -20 0
1 64 -26 0
1 -64 -66 0
1 -64 -77 0
1 64 -81 0
1 66 -68 0
1 66 43 0
1 66 16 0
1 -66 24 0
1 66 -75 0
1 66 -80 0
1 66 70 0
1 -66 -41 0
1 -66 20 0
1 -66 -26 0
1 66 -77 0
1 -66 -81 0
1 40 -23 0
1 -40 8 0
1 40 9 0
1 -40 -29 0
1 -40 -65 0
1 -40 -74 0
1 -40 -70 0
1 40 -12 0
1 40 19 0
1 -40 13 0
1 -40 32 0
1 -40 -67 0
1 40 28 0
1 40 -38 0
1 38 -68 0
1 -38 8 0
1 38 23 0
1 -38 -9 0
1 -38 29 0
1 38 65 0
1 38 74 0
1 38 -40 0
1 38 19 0
1 38 12 0
1 38 -13 0
1 38 -32 0
1 38 -67 0
1 -38 -28 0
1 -47 23 0
1 47 39 0
1 -47 65 0
1 47 -80 0
1 47 19 0
1 -47 42 0
1 47 37 0
1 -47 -32 0
1 47 67 0
1 47 50 0
1 47 -28 0
1 -50 -23 0
1 -50 82 0
1 50 -39 0
1 50 65 0
1 50 47 0
1 50 -74 0
1 -50 19 0
1 -50 -42 0
1 -50 37 0
1 -50 -32 0
1 -50 28 0
1 50 67 0
1 50 81 0
1 -19 23 0
1 -19 43 0
1 -19 -83 0
1 -19 -84 0
1 -19 44 0
1 19 47 0
1 -19 -40 0
1 19 -11 0
1 19 -41 0
1 -19 85 0
1 -19 -86 0
1 19 -45 0
1 -19 38 0
1 -23 -43 0
1 23 83 0
1 -23 -84 0
1 23 -44 0
1 -23 -47 0
1 23 40 0
1 -23 -5 0
1 -23 85 0
1 23 -86 0
1 23 -50 0
1 -23 -38 0
1 -74 43 0
1 -74 83 0
1 74 -87 0
1 74 -75 0
1 74 47 0
1 -74 3 0
1 -74 -40 0
1 -74 41 0
1 74 85 0
1 -74 77 0
1 -74 50 0
1 -74 -28 0
1 28 -43 0
1 -28 -83 0
1 28 -87 0
1 28 75 0
1 28 -47 0
1 28 74 0
1 -28 -40 0
1 28 -41 0
1 28 4 0
1 28 85 0
1 -28 -77 0
1 -28 38 0
1 -44 23 0
1 -44 82 0
1 -44 29 0
1 -44 -39 0
1 44 -30 0
1 44 75 0
1 44 -19 0
1 44 42 0
1 -44 -31 0
1 44 -45 0
1 45 23 0
1 45 -39 0
1 45 -30 0
1 45 -44 0
1 45 -19 0
1 -45 -42 0
1 -45 -37 0
1 -45 32 0
1 45 31 0
1 45 77 0
1 -84 82 0
1 -84 39 0
1 84 49 0
1 -84 -86 0
1 84 46 0
1 -84 87 0
1 -84 19 0
1 -84 37 0
1 -86 -23 0
1 86 -39 0
1 -86 49 0
1 -86 -46 0
1 86 -84 0
1 -86 -19 0
1 -86 42 0
1 -86 37 0
1 -86 88 0
1 -86 -89 0
1 -37 39 0
1 37 -90 0
1 37 -91 0
1 -37 -84 0
1 37 44 0
1 -37 -47 0
1 -37 13 0
1 -37 92 0
1 -37 -93 0
1 37 -86 0
1 37 -45 0
1 -37 50 0
1 39 90 0
1 -39 -91 0
1 39 -84 0
1 -39 44 0
1 39 47 0
1 -39 -92 0
1 39 37 0
1 -39 -93 0
1 39 86 0
1 -39 45 0
1 -39 -50 0
1 42 -82 0
1 42 -94 0
1 42 -44 0
1 -42 -12 0
1 -42 -85 0
1 -42 86 0
1 42 45 0
1 -42 -50 0
1 -82 -94 0
1 82 -83 0
1 82 84 0
1 -82 44 0
1 -82 47 0
1 -82 42 0
1 -82 85 0
1 -82 86 0
1 82 45 0
1 -82 -50 0
1 -91 -46 0
1 -91 83 0
1 -91 -48 0
1 91 37 0
1 91 -93 0
1 93 -39 0
1 93 49 0
1 93 -91 0
1 -93 46 0
1 93 -37 0
1 93 -48 0
1 93 -85 0
1 -93 88 0
1 90 -39 0
1 -90 -49 0
1 -90 -94 0
1 90 -46 0
1 -90 -37 0
1 90 48 0
1 -90 88 0
1 -92 -39 0
1 -92 -90 0
1 92 -49 0
1 92 -46 0
1 -92 37 0
1 92 -95 0
1 92 48 0
1 -92 -88 0
1 88 -90 0
1 88 -91 0
1 88 84 0
1 -88 92 0
1 88 93 0
1 -88 -31 0
1 -88 86 0
1 46 90 0
1 46 30 0
1 46 91 0
1 46 -84 0
1 -46 92 0
1 -46 -93 0
1 46 86 0
1 -46 88 0
1 -48 49 0
1 -48 -91 0
1 -48 84 0
1 48 92 0
1 48 -32 0
1 -48 93 0
1 48 -86 0
1 49 -29 0
1 49 -90 0
1 49 -91 0
1 -49 -84 0
1 -49 -48 0
1 -49 92 0
1 -49 93 0
1 49 -86 0
1 70 -68 0
1 -70 62 0
1 70 60 0
1 -70 56 0
1 -70 -57 0
1 70 64 0
1 -70 -40 0
1 70 -63 0
1 -70 61 0
1 70 -58 0
1 -70 59 0
1 70 66 0
1 68 62 0
1 68 60 0
1 -68 -64 0
1 -68 -70 0
1 -68 -61 0
1 68 -58 0
1 -68 -59 0
1 -68 -66 0
1 68 -38 0
1 80 -62 0
1 80 72 0
1 80 -69 0
1 80 64 0
1 80 47 0
1 80 63 0
1 -80 -61 0
1 80 73 0
1 -80 71 0
1 -80 -66 0
1 80 81 0
1 81 -62 0
1 -81 -60 0
1 -81 72 0
1 81 -69 0
1 -81 -64 0
1 -81 -80 0
1 81 73 0
1 81 71 0
1 -81 -66 0
1 81 50 0
1 -60 -68 0
1 -60 -87 0
1 60 -75 0
1 -60 -80 0
1 -60 -61 0
1 -60 89 0
1 60 -77 0
1 60 81 0
1 61 -68 0
1 61 -60 0
1 61 -87 0
1 -61 -75 0
1 61 -80 0
1 61 -70 0
1 61 55 0
1 61 -89 0
1 -61 -77 0
1 61 -81 0
1 62 -68 0
1 62 -53 0
1 62 -80 0
1 -62 70 0
1 62 -63 0
1 62 81 0
1 -63 -68 0
1 63 62 0
1 63 80 0
1 63 -70 0
1 -63 -52 0
1 63 -81 0
1 75 -60 0
1 -75 -72 0
1 -75 69 0
1 -75 64 0
1 75 -44 0
1 -75 -65 0
1 -75 74 0
1 75 -61 0
1 75 73 0
1 -75 -71 0
1 -75 -66 0
1 -75 67 0
1 -75 77 0
1 75 28 0
1 77 -72 0
1 77 -69 0
1 77 64 0
1 -77 67 0
1 77 -65 0
1 77 74 0
1 77 -61 0
1 77 -73 0
1 77 71 0
1 77 -66 0
1 77 -45 0
1 -87 -96 0
1 -87 69 0
1 -87 -84 0
1 87 -79 0
1 87 -76 0
1 -87 -74 0
1 -87 -61 0
1 -87 -73 0
1 87 71 0
1 -87 78 0
1 89 60 0
1 89 72 0
1 -89 69 0
1 89 87 0
1 -89 -79 0
1 89 -76 0
1 89 -74 0
1 89 -71 0
1 89 -86 0
1 -89 96 0
1 89 78 0
1 69 71 0
1 -69 -94 0
1 69 57 0
1 -69 -83 0
1 69 -87 0
1 69 75 0
1 69 -80 0
1 -69 95 0
1 -69 -85 0
1 69 -89 0
1 69 -77 0
1 -69 -81 0
1 -71 -94 0
1 71 83 0
1 -71 -69 0
1 71 87 0
1 71 80 0
1 -71 -95 0
1 71 59 0
1 71 85 0
1 -71 -77 0
1 -71 -81 0
1 72 -56 0
1 72 -87 0
1 -72 -75 0
1 -72 80 0
1 -72 -73 0
1 72 -89 0
1 -72 -77 0
1 -72 -81 0
1 73 -72 0
1 73 -87 0
1 -73 -75 0
1 73 -80 0
1 -73 58 0
1 -73 89 0
1 -73 77 0
1 73 81 0
1 -83 82 0
1 83 -71 0
1 -83 91 0
1 83 69 0
1 83 -79 0
1 83 76 0
1 -83 74 0
1 -83 19 0
1 -83 42 0
1 83 85 0
1 83 -96 0
1 -83 78 0
1 83 28 0
1 -85 -23 0
1 85 82 0
1 -85 83 0
1 85 69 0
1 -85 79 0
1 85 -76 0
1 -85 -74 0
1 -85 19 0
1 85 42 0
1 85 -93 0
1 -85 78 0
1 94 -82 0
1 -94 -90 0
1 -94 69 0
1 94 79 0
1 94 42 0
1 -94 -95 0
1 -94 71 0
1 94 -96 0
1 -95 82 0
1 95 -94 0
1 95 -69 0
1 95 79 0
1 95 76 0
1 95 42 0
1 95 92 0
1 -95 71 0
1 -95 96 0
1 -76 94 0
1 -76 83 0
1 76 -87 0
1 -76 -65 0
1 -76 -95 0
1 -76 -85 0
1 76 89 0
1 76 78 0
1 -78 83 0
1 -78 -87 0
1 -78 -76 0
1 78 95 0
1 78 -85 0
1 -78 89 0
1 78 -67 0
1 79 -94 0
1 79 96 0
1 -79 83 0
1 -79 64 0
1 79 87 0
1 79 95 0
1 -79 -85 0
1 -79 -89 0
1 96 94 0
1 96 83 0
1 -96 87 0
1 -96 -79 0
1 96 -95 0
1 -96 66 0
1 -96 -89 0
